Route #1: 17 8
Route #2: 75 93
Route #3: 59 60 82
Route #4: 34 64 96 48 26 47 38
Route #5: 5 12 58
Route #6: 19 97 27
Route #7: 87 37 6 49 14
Route #8: 83 51 81
Route #9: 89 98 99 62 71
Route #10: 31 46 35
Route #11: 68 90 84 66
Route #12: 7 2 45 43 29 36 72 57
Route #13: 4 13 74
Route #14: 63 77 3
Route #15: 54 70 1
Route #16: 69 16 55 76
Route #17: 20 41 22 15
Route #18: 39 10 18
Route #19: 44 67 88 40
Route #20: 30 85 11 79
Route #21: 86 9 92
Route #22: 50 91 52
Route #23: 28 42 78 65 25
Route #24: 23 61 100
Route #25: 21 56 94 80
Route #26: 32 33 53 73 95 24
Cost 27591.0000
Time 16.0003